NAME: a280
TYPE: TSP
DIMENSION: 280
DISTANCE: 2801.2518570044044
TOUR_SOLUTION: 
1 280 3 279 278 4 5 6 7 9 8 10 11 12 13 14 24 23 25 22 26 27 28 29 125 30 31 32 33 34 36 37 38 35 39 40 41 42 43 60 61 118 117 115 114 111 110 112 88 113 87 84 85 86 116 62 63 64 59 44 45 46 47 48 49 50 51 52 53 54 55 56 57 58 68 69 70 67 65 66 71 72 73 74 83 82 81 80 79 76 75 77 78 95 94 96 97 98 93 92 91 90 89 109 108 104 105 106 107 173 172 171 170 103 102 99 100 101 169 168 167 166 165 164 163 162 161 174 175 160 159 158 157 119 120 121 122 123 124 126 127 128 21 20 19 18 15 272 271 16 17 133 132 131 130 129 154 155 153 156 152 151 177 176 181 180 179 178 150 149 148 147 146 145 199 198 197 193 186 182 183 184 185 187 188 189 190 191 192 194 195 196 201 202 200 144 143 142 141 140 139 138 137 136 135 134 270 269 268 267 266 265 264 263 262 261 273 274 275 276 277 260 259 258 257 254 253 208 209 210 207 206 205 204 203 221 220 217 216 213 212 211 214 215 218 219 222 223 224 225 226 227 228 229 230 251 250 252 255 256 249 248 247 245 246 231 232 233 234 235 236 237 238 239 240 241 244 243 242 2 EOF